(set-option :print-success true)
(set-option :produce-models true)
(set-logic ALL)
(declare-sort Unspecified 0)
(declare-sort Unit 0)
(declare-const loaded_value_0 (_ BitVec 64))
(declare-const clif_load_active_1 Bool)
(declare-const clif_load_size_bits_2 Int)
(declare-const clif_load_addr_3 (_ BitVec 64))
(declare-const clif_store_active_4 Bool)
(declare-const clif_store_size_bits_5 Int)
(declare-const clif_store_addr_6 (_ BitVec 64))
(declare-const clif_store_value_7 (_ BitVec 64))
(declare-const clif_trap_8 Bool)
(declare-const isa_load_active_9 Bool)
(declare-const isa_load_size_bits_10 Int)
(declare-const isa_load_addr_11 (_ BitVec 64))
(declare-const b0_12 (_ BitVec 64))
(declare-const b3_some_13 Bool)
(declare-const b3_inner_0_bits_14 Int)
(declare-const b3_inner_1_15 (_ BitVec 64))
(declare-const e16 Bool)
(assert (! (= e16 (= b0_12 b3_inner_1_15)) :named expr16))
(declare-const e17 Int)
(assert (! (= e17 64) :named expr17))
(declare-const e18 Bool)
(assert (! (= e18 (= b3_inner_0_bits_14 e17)) :named expr18))
(declare-const e19 Bool)
(assert (! (= e19 true) :named expr19))
(declare-const e20 Bool)
(assert (! (= e20 (= b3_some_13 e19)) :named expr20))
(declare-const e21 Bool)
(assert (! (= e21 (and e16 e18)) :named expr21))
(declare-const e22 Bool)
(assert (! (= e22 (=> e19 e21)) :named expr22))
(declare-const b4_0_bits_23 Int)
(declare-const b4_1_24 (_ BitVec 64))
(declare-const e25 Bool)
(assert (! (= e25 (= b4_0_bits_23 b3_inner_0_bits_14)) :named expr25))
(declare-const e26 Bool)
(assert (! (= e26 (= b4_1_24 b3_inner_1_15)) :named expr26))
(declare-const e27 Bool)
(assert (! (= e27 (and e25 e26)) :named expr27))
(declare-const e28 Bool)
(assert (! (= e28 (=> b3_some_13 e27)) :named expr28))
(declare-const b5_bits_29 Int)
(declare-const e30 Bool)
(assert (! (= e30 (= b5_bits_29 b4_0_bits_23)) :named expr30))
(declare-const b6_some_31 Bool)
(declare-const b6_inner_bits_32 Int)
(declare-const e33 Int)
(assert (! (= e33 64) :named expr33))
(declare-const e34 Bool)
(assert (! (= e34 (<= b5_bits_29 e33)) :named expr34))
(declare-const e35 Bool)
(assert (! (= e35 (= b5_bits_29 b6_inner_bits_32)) :named expr35))
(declare-const e36 Bool)
(assert (! (= e36 (= b6_some_31 e34)) :named expr36))
(declare-const e37 Bool)
(assert (! (= e37 (=> e34 e35)) :named expr37))
(declare-const b7_38 (_ BitVec 64))
(declare-const e39 Bool)
(assert (! (= e39 (= b7_38 b4_1_24)) :named expr39))
(declare-const b8_some_40 Bool)
(declare-const b8_inner_0_bits_41 Int)
(declare-const b8_inner_1_42 (_ BitVec 64))
(declare-const b8_inner_2_43 (_ BitVec 64))
(declare-const e44 Int)
(assert (! (= e44 64) :named expr44))
(declare-const e45 (_ BitVec 64))
(assert (! (= e45 ((_ int2bv 64) e44)) :named expr45))
(declare-const e46 (_ BitVec 64))
(assert (! (= e46 #b0000000000000000000000000000000000000000000000000000000000000001) :named expr46))
(declare-const e47 (_ BitVec 64))
(assert (! (= e47 (bvsub e45 e46)) :named expr47))
(declare-const e48 (_ BitVec 64))
(assert (! (= e48 e47) :named expr48))
(declare-const e49 (_ BitVec 64))
(assert (! (= e49 (bvand b8_inner_2_43 e48)) :named expr49))
(declare-const e50 (_ BitVec 64))
(assert (! (= e50 (bvshl b8_inner_1_42 e49)) :named expr50))
(declare-const e51 Bool)
(assert (! (= e51 (= b7_38 e50)) :named expr51))
(declare-const e52 Bool)
(assert (! (= e52 (= b8_some_40 e19)) :named expr52))
(declare-const e53 Bool)
(assert (! (= e53 (=> e19 e51)) :named expr53))
(declare-const b9_0_bits_54 Int)
(declare-const b9_1_55 (_ BitVec 64))
(declare-const b9_2_56 (_ BitVec 64))
(declare-const e57 Bool)
(assert (! (= e57 (= b9_0_bits_54 b8_inner_0_bits_41)) :named expr57))
(declare-const e58 Bool)
(assert (! (= e58 (= b9_1_55 b8_inner_1_42)) :named expr58))
(declare-const e59 Bool)
(assert (! (= e59 (= b9_2_56 b8_inner_2_43)) :named expr59))
(declare-const e60 Bool)
(assert (! (= e60 (and e57 e58)) :named expr60))
(declare-const e61 Bool)
(assert (! (= e61 (and e60 e59)) :named expr61))
(declare-const e62 Bool)
(assert (! (= e62 (=> b8_some_40 e61)) :named expr62))
(declare-const b10_63 (_ BitVec 64))
(declare-const e64 Bool)
(assert (! (= e64 (= b10_63 b9_1_55)) :named expr64))
(declare-const b11_65 (_ BitVec 64))
(declare-const e66 (_ BitVec 64))
(assert (! (= e66 b10_63) :named expr66))
(declare-const e67 Bool)
(assert (! (= e67 (= b11_65 e66)) :named expr67))
(declare-const b12_68 (_ BitVec 64))
(declare-const e69 Bool)
(assert (! (= e69 (= b12_68 b9_2_56)) :named expr69))
(declare-const b13_bits_70 Int)
(declare-const e71 Bool)
(assert (! (= e71 (= b13_bits_70 b6_inner_bits_32)) :named expr71))
(declare-const e72 Bool)
(assert (! (= e72 (=> b6_some_31 e71)) :named expr72))
(declare-const b14_Imm8_73 (_ BitVec 8))
(declare-const b14_isReg_74 Bool)
(declare-const b14_reg_75 (_ BitVec 64))
(declare-const e76 Int)
(assert (! (= e76 8) :named expr76))
(declare-const e77 (_ BitVec 8))
(assert (! (= e77 ((_ extract 7 0) b12_68)) :named expr77))
(declare-const e78 Bool)
(assert (! (= e78 (= b13_bits_70 e76)) :named expr78))
(declare-const e79 (_ BitVec 8))
(assert (! (= e79 #b00000111) :named expr79))
(declare-const e80 Int)
(assert (! (= e80 16) :named expr80))
(declare-const e81 Bool)
(assert (! (= e81 (= b13_bits_70 e80)) :named expr81))
(declare-const e82 (_ BitVec 8))
(assert (! (= e82 #b00001111) :named expr82))
(declare-const e83 Int)
(assert (! (= e83 32) :named expr83))
(declare-const e84 Bool)
(assert (! (= e84 (= b13_bits_70 e83)) :named expr84))
(declare-const e85 (_ BitVec 8))
(assert (! (= e85 #b00011111) :named expr85))
(declare-const e86 Bool)
(assert (! (= e86 (= b13_bits_70 e33)) :named expr86))
(declare-const e87 (_ BitVec 8))
(assert (! (= e87 #b00111111) :named expr87))
(declare-const undef_88 (_ BitVec 8))
(declare-const e89 (_ BitVec 8))
(assert (! (= e89 (ite e86 e87 undef_88)) :named expr89))
(declare-const e90 (_ BitVec 8))
(assert (! (= e90 (ite e84 e85 e89)) :named expr90))
(declare-const e91 (_ BitVec 8))
(assert (! (= e91 (ite e81 e82 e90)) :named expr91))
(declare-const e92 (_ BitVec 8))
(assert (! (= e92 (ite e78 e79 e91)) :named expr92))
(declare-const e93 (_ BitVec 8))
(assert (! (= e93 (bvand e77 e92)) :named expr93))
(declare-const e94 Bool)
(assert (! (= e94 (= b14_Imm8_73 e93)) :named expr94))
(declare-const e95 Bool)
(assert (! (= e95 false) :named expr95))
(declare-const e96 Bool)
(assert (! (= e96 (= b14_isReg_74 e95)) :named expr96))
(declare-const e97 (_ BitVec 64))
(assert (! (= e97 #b0000000000000000000000000000000000000000000000000000000000000000) :named expr97))
(declare-const e98 Bool)
(assert (! (= e98 (= b14_reg_75 e97)) :named expr98))
(declare-const b15_99 (_ BitVec 64))
(declare-const e100 (_ BitVec 8))
(assert (! (= e100 ((_ extract 7 0) b11_65)) :named expr100))
(declare-const e101 (_ BitVec 8))
(assert (! (= e101 (bvshl e100 b14_Imm8_73)) :named expr101))
(declare-const e102 (_ BitVec 64))
(assert (! (= e102 ((_ zero_extend 56) e101)) :named expr102))
(declare-const e103 (_ BitVec 16))
(assert (! (= e103 ((_ extract 15 0) b11_65)) :named expr103))
(declare-const e104 (_ BitVec 16))
(assert (! (= e104 ((_ zero_extend 8) b14_Imm8_73)) :named expr104))
(declare-const e105 (_ BitVec 16))
(assert (! (= e105 (bvshl e103 e104)) :named expr105))
(declare-const e106 (_ BitVec 64))
(assert (! (= e106 ((_ zero_extend 48) e105)) :named expr106))
(declare-const e107 (_ BitVec 32))
(assert (! (= e107 ((_ extract 31 0) b11_65)) :named expr107))
(declare-const e108 (_ BitVec 32))
(assert (! (= e108 ((_ zero_extend 24) b14_Imm8_73)) :named expr108))
(declare-const e109 (_ BitVec 32))
(assert (! (= e109 (bvshl e107 e108)) :named expr109))
(declare-const e110 (_ BitVec 64))
(assert (! (= e110 ((_ zero_extend 32) e109)) :named expr110))
(declare-const e111 (_ BitVec 64))
(assert (! (= e111 ((_ zero_extend 56) b14_Imm8_73)) :named expr111))
(declare-const e112 (_ BitVec 64))
(assert (! (= e112 (bvshl b11_65 e111)) :named expr112))
(declare-const undef_113 (_ BitVec 64))
(declare-const e114 (_ BitVec 64))
(assert (! (= e114 (ite e86 e112 undef_113)) :named expr114))
(declare-const e115 (_ BitVec 64))
(assert (! (= e115 (ite e84 e110 e114)) :named expr115))
(declare-const e116 (_ BitVec 64))
(assert (! (= e116 (ite e81 e106 e115)) :named expr116))
(declare-const e117 (_ BitVec 64))
(assert (! (= e117 (ite e78 e102 e116)) :named expr117))
(declare-const e118 Bool)
(assert (! (= e118 (= b15_99 e117)) :named expr118))
(declare-const b17_some_119 Bool)
(declare-const b17_inner_120 (_ BitVec 64))
(declare-const b23_121 (_ BitVec 64))
(declare-const b22_lo_122 (_ BitVec 64))
(declare-const b22_hi_123 (_ BitVec 64))
(declare-const b19_124 (_ BitVec 64))
(declare-const e125 Bool)
(assert (! (= e125 (= b19_124 b15_99)) :named expr125))
(declare-const e126 Bool)
(assert (! (= e126 (= b22_lo_122 b19_124)) :named expr126))
(declare-const e127 Int)
(assert (! (= e127 64) :named expr127))
(declare-const e128 Int)
(assert (! (= e128 64) :named expr128))
(declare-const e129 Bool)
(assert (! (= e129 (= e127 e128)) :named expr129))
(declare-const e130 (_ BitVec 128))
(assert (! (= e130 (concat b22_hi_123 b22_lo_122)) :named expr130))
(declare-const e131 Int)
(assert (! (= e131 128) :named expr131))
(declare-const e132 (_ BitVec 128))
(declare-const $conv_to_padding0 (_ BitVec 64))
(assert (! (= e132 (concat $conv_to_padding0 b23_121)) :named expr132))
(declare-const e133 Bool)
(assert (! (= e133 (= e130 e132)) :named expr133))
(declare-const e134 Bool)
(assert (! (= e134 (= b23_121 b17_inner_120)) :named expr134))
(declare-const e135 Bool)
(assert (! (= e135 (= b17_inner_120 b0_12)) :named expr135))
(declare-const e136 Bool)
(assert (! (= e136 (= b17_some_119 e19)) :named expr136))
(declare-const e137 Bool)
(assert (! (= e137 (=> e19 e135)) :named expr137))
(declare-const e138 Bool)
(assert (! (= e138 (not clif_load_active_1)) :named expr138))
(declare-const e139 Bool)
(assert (! (= e139 (not clif_store_active_4)) :named expr139))
(declare-const e140 Int)
(assert (! (= e140 1) :named expr140))
(declare-const e141 Bool)
(assert (! (= e141 (= clif_store_size_bits_5 e140)) :named expr141))
(declare-const e142 Bool)
(assert (! (= e142 (and e139 e141)) :named expr142))
(declare-const e143 Bool)
(assert (! (= e143 (not clif_trap_8)) :named expr143))
(declare-const e144 Bool)
(assert (! (= e144 (not isa_load_active_9)) :named expr144))
(push)
(assert (and e20 e22 e28 e30 e36 e37 e39 e52 e53 e62 e64 e67 e69 e72 e94 e96 e98 e118 e125 e126 e129 e133 b17_some_119 e134 e136 b3_some_13 b6_some_31 b8_some_40 e19 e138 e142 e143 e144))
(check-sat)
(pop)
(push)
(assert (not (=> (and e20 e22 e28 e30 e36 e37 e39 e52 e53 e62 e64 e67 e69 e72 e94 e96 e98 e118 e125 e126 e129 e133 b17_some_119 e134 e136 b3_some_13 b6_some_31 b8_some_40 e19 e138 e142 e143 e144) (and e96 e137))))
(check-sat)
(pop)
(exit)
